n = 50;
C = 6810;
w = [38,130,311,166,152,50,324,262,272,416,357,103,345,444,352,227,7,140,396,484,499,230,104,205,203,264,201,471,243,163,288,49,413,287,317,244,43,474,426,296,308,420,424,493,62,226,462,191,339,300];
p = [67,89,277,150,151,67,334,294,288,448,386,99,361,427,316,267,-40,143,404,498,533,215,138,169,208,291,218,475,229,154,252,83,414,293,271,230,30,492,442,295,286,413,435,474,22,274,489,143,367,313];
